500          79176001000          279077001500          33599002000          58102002500          93309003000          133741003500          178856004000          222701004500          291677005000          36535200500          84934001000          47287001500          35460002000          58039002500          91439003000          131299003500          176603004000          236405004500          279110005000          33343200500          81000          41500          32000          52500          93000          133500          164000          214500          275000          34500          71000          41500          32000          62500          93000          173500          174000          274500          305000          36500          71000          231500          32000          62500          93000          133500          184000          224500          285000          36500          81000          221500          32000          62500          93000          133500          184000          234500          285000          38500          71000          261500          32000          52500          93000          133500          164000          214500          285000          35500          81000          261500          32000          52500          93000          123500          174000          224500          275000          36500          8500          8500          7500          911000          5461500          23422000          41992500          92683000          177563500          250934000          324234500          492645000          72765500          901000          5101500          21872000          40352500          90213000          173033500          245184000          320994500          486165000          72577500          1001000          4201500          17632000          32722500          72403000          139023500          210024000          25512